0
1
2
2,105
3
4
15
6
7
8
11,12,16
12,16
6,9
6,10
12
6,12
13
14
17,18
19
20
21
23
5,23
23,107
24,26,98
24,26,99
25,29
27
28
29
30
31
40,43
33
34
22,32,93,111
35,36
115,118,119,120,121
37
38
39
37,38
37,41,42
37,41
42
37,42
44
45
46
47
48
49
50
51
33,61
52
53
54
55
56
57
58
59
60
61
62
63
64
69
65
66
67
68
70
71
72
73
74
76
77
78
79
80
81
82
83
84
85
86
87
88
89
90
90,96
91
44,91
94,103
75,94
92
95
96
97
97,113
97,117
100
101
102
42,102
104
105
107
108
106,109
99,110
112
60,112
113
114
116
